PROBLEM NAME: eil51_n10
KNAPSACK DATA TYPE: uncorrelated
DIMENSION: 10
NUMBER OF ITEMS: 45
CAPACITY OF KNAPSACK: 1874
MIN SPEED: 0.1
MAX SPEED: 1
RENTING RATIO: 14.84
EDGE_WEIGHT_TYPE: CEIL_2D
NODE_COORD_SECTION	(INDEX, X, Y):
1	37	52
2	21	47
3	42	41
4	31	32
5	12	42
6	17	33
7	43	67
8	5	64
9	25	55
10	48	28
ITEMS SECTION	(INDEX, PROFIT, WEIGHT, ASSIGNED NODE NUMBER):
1	997	199	7
2	994	367	7
3	992	421	7
4	943	895	7
5	931	70	7
6	908	97	9
7	893	984	9
8	874	138	9
9	815	845	9
10	794	995	9
11	791	9	2
12	772	645	2
13	766	882	2
14	726	98	2
15	720	856	2
16	707	242	8
17	700	72	8
18	667	122	8
19	649	322	8
20	633	299	8
21	617	874	5
22	598	94	5
23	569	107	5
24	544	574	5
25	539	719	5
26	537	122	6
27	513	267	6
28	506	326	6
29	487	600	6
30	457	43	6
31	446	955	4
32	428	682	4
33	422	252	4
34	419	145	4
35	416	248	4
36	359	901	10
37	334	715	10
38	237	795	10
39	196	529	10
40	131	433	10
41	116	277	3
42	94	485	3
43	81	972	3
44	58	213	3
45	7	738	3
